# 42348
param n := 30;
param s := 1;
set E :=  (0,11) (0,29) (1,2) (2,24) (2,29) (3,17) (4,6) (4,18) (4,27) (5,7) (5,21) (7,14) (7,17) (8,14) (9,10) (9,12) (9,28) (10,13) (10,29) (11,22) (11,26) (12,16) (15,27) (15,28) (17,23) (17,29) (19,20) (19,25) (19,29);
